sifdecoder -A pc64.lnx.gfo -st   DEGTRIDL

 Problem name: DEGTRIDL

 Double precision version will be formed

 The objective function uses 2 linear groups
 
 There is 1 linear equality constraint
 
 There are 100001 variables bounded only from below 
 
 
 File successfully decoded
 CUTEST: tools (double precision version) compiled successfully
 CUTEst: ipopt (double precision version) compiled successfully

******************************************************************************
This program contains Ipopt, a library for large-scale nonlinear optimization.
 Ipopt is released as open source code under the Eclipse Public License (EPL).
         For more information visit http://projects.coin-or.org/Ipopt
******************************************************************************

This is Ipopt version trunk, running with linear solver ma57.

Number of nonzeros in equality constraint Jacobian...:   100001
Number of nonzeros in inequality constraint Jacobian.:        0
Number of nonzeros in Lagrangian Hessian.............:   200001

Total number of variables............................:   100001
                     variables with only lower bounds:   100001
                variables with lower and upper bounds:        0
                     variables with only upper bounds:        0
Total number of equality constraints.................:        1
Total number of inequality constraints...............:        0
        inequality constraints with only lower bounds:        0
   inequality constraints with lower and upper bounds:        0
        inequality constraints with only upper bounds:        0

iter    objective    inf_pr   inf_du lg(mu)  ||d||  lg(rg) alpha_du alpha_pr  ls
   0  2.0000500e+05 1.00e+05 5.00e-01  -1.0 0.00e+00    -  0.00e+00 0.00e+00   0
   1  5.5278588e-01 2.52e-08 1.00e-06  -1.0 1.62e+00    -  1.00e+00 1.00e+00f  1
   2  5.2921161e-01 1.25e-07 3.56e-03  -1.7 8.11e-02    -  9.94e-01 1.00e+00f  1
   3  5.0885257e-01 9.54e-08 2.83e-08  -2.5 1.21e-01    -  1.00e+00 1.00e+00f  1
   4  5.0236845e-01 2.03e-07 2.18e-04  -3.8 8.42e-02    -  9.96e-01 1.00e+00f  1
   5  5.0063025e-01 1.30e-08 1.50e-09  -3.8 4.59e-02    -  1.00e+00 1.00e+00f  1
   6  5.0016097e-01 9.08e-08 1.70e-04  -5.7 2.47e-02    -  9.87e-01 1.00e+00f  1
   7  5.0004074e-01 1.68e-07 1.84e-11  -5.7 1.25e-02    -  1.00e+00 1.00e+00h  1
   8  5.0001056e-01 1.05e-08 1.84e-11  -5.7 6.26e-03    -  1.00e+00 1.00e+00h  1
   9  5.0000297e-01 2.46e-08 1.84e-11  -5.7 2.99e-03    -  1.00e+00 1.00e+00h  1
iter    objective    inf_pr   inf_du lg(mu)  ||d||  lg(rg) alpha_du alpha_pr  ls
  10  5.0000099e-01 3.47e-08 3.69e-07  -8.6 1.77e-03    -  1.00e+00 1.00e+00h  1
  11  5.0000013e-01 5.96e-08 2.57e-14  -8.6 8.89e-04    -  1.00e+00 1.00e+00h  1
  12  5.0000006e-01 1.03e-09 2.56e-14  -8.6 4.43e-04    -  1.00e+00 1.00e+00h  1
  13  5.0000001e-01 9.38e-11 2.56e-14  -8.6 2.19e-04    -  1.00e+00 1.00e+00h  1
  14  5.0000002e-01 8.37e-11 9.65e-15  -9.0 1.11e-04    -  1.00e+00 1.00e+00H  1

Number of Iterations....: 14

                                   (scaled)                 (unscaled)
Objective...............:   5.0000001786975190e-01    5.0000001786975190e-01
Dual infeasibility......:   9.6506935317744274e-15    9.6506935317744274e-15
Constraint violation....:   8.3659412730696658e-11    8.3659412730696658e-11
Complementarity.........:   7.0662747668478328e-09    7.0662747668478328e-09
Overall NLP error.......:   7.0662747668478328e-09    7.0662747668478328e-09


Number of objective function evaluations             = 16
Number of objective gradient evaluations             = 15
Number of equality constraint evaluations            = 16
Number of inequality constraint evaluations          = 0
Number of equality constraint Jacobian evaluations   = 15
Number of inequality constraint Jacobian evaluations = 0
Number of Lagrangian Hessian evaluations             = 14
Total CPU secs in IPOPT (w/o function evaluations)   =      5.368
Total CPU secs in NLP function evaluations           =      1.926

EXIT: Optimal Solution Found.

************************ CUTEst statistics ************************


 Package used            :  IPOPT
 Problem                 :  DEGTRIDL  
 # variables             =          100001
 # constraints           =               1
 # objective functions   =        0.3200000E+02
 # objective gradients   =        0.1600000E+02
 # objective Hessians    =        0.1500000E+02
 # Hessian-vector prdct  =        0.0000000E+00
 # constraints functions =        0.3300000E+02
 # constraints gradients =        0.1700000E+02
 # constraints Hessians  =        0.1500000E+02
 Exit code               =               0
 Final f                 =        5.0000001786975190D-01
 Bounds feasibility      =        0.0000000000000000D+00
 Set up time             =            0.53 seconds
 Solve time              =           15.21 seconds


******************************************************************

